10J3M/DAT/10J3MNTR-15.dat
10 3
30.086 17.8842
27.2777 43.6394
22.5906 41.2921
27.2191 22.4878
19.3201 37.2021
25.1648 40.5742
24.1836 5.4028
40.5493 2.3011
36.9791 35.4737
23.5397 17.6488
65.9765