10J3M/SOL/10J3MNTR-15.sol
solution status: optimal solution found
objective value:                     80.6158436361919
x#1#2                                               1 	(obj:0)
x#2#3                                               1 	(obj:0)
x#3#2                               0.264621632677605 	(obj:0)
x#3#3                              0.0385235209958583 	(obj:0)
x#4#1                                               1 	(obj:0)
x#6#1                               0.548452278104448 	(obj:0)
x#6#3                               0.451547721895552 	(obj:0)
x#7#1                               0.663894198884743 	(obj:0)
x#7#2                               0.313137092121322 	(obj:0)
x#7#3                              0.0229687089939339 	(obj:0)
x#8#3                                               1 	(obj:0)
x#9#2                                               1 	(obj:0)
x#10#1                                              1 	(obj:0)
z                                    80.6158436361919 	(obj:1)
